decision_x1=[0,2];
decision_x2=[0,2];
decision_x3=[0,2];
decision_x4=[0,2];
decision_x5=[0,2];
decision_x6=[0,2];
decision_x7=[0,2];
decision_x8=[0,2];
decision_x9=[0,2];
decision_x10=[0,2];
decision_x11=[0,2];
decision_x12=[0,2];
decision_x13=[0,2];
decision_x14=[0,2];
decision_x15=[0,2];
random_y1=[0,2];
random_y2=[0,2];
random_y3=[0,2];
constraint_x3_x1=[
0,1,3.2|
0,2,10|
1,0,9.4|
1,2,6.6|
2,0,7|
2,1,6.2|
];
constraint_x3_x2=[
0,1,7.5|
0,2,4.1|
1,0,7.4|
1,2,5.3|
2,0,7.8|
2,1,9.6|
];
constraint_x4_x3=[
0,1,4|
0,2,0.38|
1,0,6.4|
1,2,8.4|
2,0,7.4|
2,1,2.4|
];
constraint_x5_x4=[
0,1,0.85|
0,2,7.3|
1,0,9.2|
1,2,3.8|
2,0,1.5|
2,1,1.5|
];
constraint_x6_x1=[
0,1,0.61|
0,2,5.3|
1,0,9.3|
1,2,7.3|
2,0,4.6|
2,1,9.6|
];
constraint_x7_x1=[
0,1,7.5|
0,2,9.7|
1,0,0.41|
1,2,9.1|
2,0,3.7|
2,1,9.2|
];
constraint_x7_x2=[
0,1,0.75|
0,2,0.58|
1,0,6.7|
1,2,7.7|
2,0,8|
2,1,5.8|
];
constraint_x7_x4=[
0,1,3.9|
0,2,1.1|
1,0,4.3|
1,2,5.8|
2,0,7.3|
2,1,9|
];
constraint_x7_x5=[
0,1,6.5|
0,2,1.3|
1,0,0.12|
1,2,6.9|
2,0,3|
2,1,5.2|
];
constraint_x7_x6=[
0,1,2.6|
0,2,2|
1,0,2.4|
1,2,7|
2,0,2.8|
2,1,4.1|
];
constraint_x8_x2=[
0,1,6.3|
0,2,9.6|
1,0,7.1|
1,2,6.2|
2,0,1.4|
2,1,6.7|
];
constraint_x8_x3=[
0,1,2.9|
0,2,0.38|
1,0,5.8|
1,2,3.6|
2,0,1.9|
2,1,6.2|
];
constraint_x8_x4=[
0,1,5|
0,2,6.5|
1,0,6.7|
1,2,9.5|
2,0,8.5|
2,1,3.4|
];
constraint_x8_x5=[
0,1,6.8|
0,2,2.8|
1,0,1.9|
1,2,1.8|
2,0,3.2|
2,1,9.8|
];
constraint_x8_x6=[
0,1,2.5|
0,2,0.55|
1,0,5|
1,2,2.9|
2,0,2.9|
2,1,2|
];
constraint_x8_x7=[
0,1,8.5|
0,2,6.5|
1,0,7.7|
1,2,8.1|
2,0,3.3|
2,1,4.2|
];
constraint_x9_x4=[
0,1,4|
0,2,1.9|
1,0,8.6|
1,2,2.6|
2,0,8|
2,1,3.7|
];
constraint_x9_x5=[
0,1,0.14|
0,2,7.8|
1,0,0.76|
1,2,2.9|
2,0,4.8|
2,1,5.7|
];
constraint_x9_x6=[
0,1,2.1|
0,2,6.5|
1,0,6.7|
1,2,2.1|
2,0,8.5|
2,1,6.9|
];
constraint_x9_x7=[
0,1,2.6|
0,2,4.9|
1,0,3|
1,2,1.7|
2,0,0.86|
2,1,2|
];
constraint_x9_x8=[
0,1,7.1|
0,2,0.063|
1,0,6|
1,2,1.7|
2,0,4.3|
2,1,9.7|
];
constraint_x10_x3=[
0,1,4.7|
0,2,2|
1,0,0.65|
1,2,6.6|
2,0,6.7|
2,1,9.5|
];
constraint_x10_x5=[
0,1,3.1|
0,2,3.7|
1,0,5.4|
1,2,2.2|
2,0,8.1|
2,1,0.11|
];
constraint_x10_x6=[
0,1,1.5|
0,2,1.5|
1,0,7.8|
1,2,3.6|
2,0,7.1|
2,1,8.7|
];
constraint_x10_x7=[
0,1,7.3|
0,2,1.9|
1,0,3.2|
1,2,8.6|
2,0,3.2|
2,1,2.1|
];
constraint_x11_x2=[
0,1,2.8|
0,2,7.5|
1,0,5.4|
1,2,7.8|
2,0,2.1|
2,1,0.63|
];
constraint_x11_x3=[
0,1,3.1|
0,2,9.7|
1,0,3|
1,2,6.4|
2,0,3.4|
2,1,7.6|
];
constraint_x11_x6=[
0,1,1.4|
0,2,0.036|
1,0,4.9|
1,2,6.8|
2,0,7.3|
2,1,4.8|
];
constraint_x11_x8=[
0,1,6.2|
0,2,0.27|
1,0,0.51|
1,2,7.2|
2,0,7.9|
2,1,5.7|
];
constraint_x12_x1=[
0,1,3.8|
0,2,1.9|
1,0,0.87|
1,2,4.1|
2,0,2.8|
2,1,1.7|
];
constraint_x12_x3=[
0,1,0.1|
0,2,3.5|
1,0,8.5|
1,2,6.4|
2,0,7.8|
2,1,7.1|
];
constraint_x12_x6=[
0,1,7.6|
0,2,5.4|
1,0,7.9|
1,2,1.3|
2,0,7.8|
2,1,0.9|
];
constraint_x12_x10=[
0,1,7.6|
0,2,8.1|
1,0,6.7|
1,2,3.3|
2,0,2|
2,1,0.25|
];
constraint_x13_x1=[
0,1,7.1|
0,2,0.3|
1,0,2.4|
1,2,0.22|
2,0,2.8|
2,1,4.8|
];
constraint_x13_x4=[
0,1,2.9|
0,2,1.9|
1,0,4.5|
1,2,9.8|
2,0,0.59|
2,1,9.5|
];
constraint_x13_x5=[
0,1,0.77|
0,2,3.2|
1,0,6.5|
1,2,4.4|
2,0,8.7|
2,1,0.94|
];
constraint_x13_x7=[
0,1,2.2|
0,2,6.1|
1,0,7|
1,2,1.7|
2,0,6.6|
2,1,0.095|
];
constraint_x13_x8=[
0,1,6.8|
0,2,5.5|
1,0,1.6|
1,2,1.8|
2,0,6.1|
2,1,8.4|
];
constraint_x13_x12=[
0,1,4.1|
0,2,9|
1,0,2.2|
1,2,6.6|
2,0,8.8|
2,1,1.9|
];
constraint_x14_x2=[
0,1,3.6|
0,2,0.39|
1,0,6.7|
1,2,1.1|
2,0,2.1|
2,1,6.9|
];
constraint_x14_x3=[
0,1,4.6|
0,2,9.2|
1,0,9.6|
1,2,2.7|
2,0,7.9|
2,1,4.1|
];
constraint_x14_x4=[
0,1,0.16|
0,2,7.1|
1,0,3.9|
1,2,9.6|
2,0,2.4|
2,1,1.9|
];
constraint_x14_x7=[
0,1,9.2|
0,2,0.58|
1,0,6.9|
1,2,7.2|
2,0,7.7|
2,1,4|
];
constraint_x14_x10=[
0,1,7.5|
0,2,3.4|
1,0,2.7|
1,2,9.1|
2,0,8.8|
2,1,9.6|
];
constraint_x14_x12=[
0,1,6.1|
0,2,6.4|
1,0,9.1|
1,2,7.7|
2,0,4.9|
2,1,0.24|
];
constraint_x15_x1=[
0,1,9.5|
0,2,7.6|
1,0,6.1|
1,2,0.041|
2,0,2|
2,1,4|
];
constraint_x15_x5=[
0,1,2|
0,2,7.1|
1,0,3.4|
1,2,10|
2,0,9.4|
2,1,6.7|
];
constraint_x15_x6=[
0,1,6.3|
0,2,7.6|
1,0,4.2|
1,2,3.9|
2,0,3.7|
2,1,0.85|
];
constraint_x15_x7=[
0,1,3.6|
0,2,2.7|
1,0,4.4|
1,2,2|
2,0,3.7|
2,1,2.2|
];
constraint_x15_x8=[
0,1,3.8|
0,2,9.2|
1,0,4.5|
1,2,0.87|
2,0,6.2|
2,1,8.9|
];
constraint_x15_x9=[
0,1,0.97|
0,2,7.4|
1,0,6.9|
1,2,6|
2,0,3.5|
2,1,6.8|
];
constraint_x15_x12=[
0,1,0.43|
0,2,0.7|
1,0,0.65|
1,2,5.8|
2,0,4.8|
2,1,2.5|
];
constraint_x15_x14=[
0,1,0.5|
0,2,1.9|
1,0,0.23|
1,2,0.62|
2,0,7.4|
2,1,9.2|
];
constraint_x1_y1=[
0,0,6.5|
0,1,9.4|
0,2,4.2|
1,0,1.2|
1,1,8.6|
1,2,7.3|
2,0,1.9|
2,1,0.43|
2,2,0.65|
];
constraint_x2_y2=[
0,0,1.6|
0,1,0.2|
0,2,4.9|
1,0,9.9|
1,1,0.83|
1,2,0.08|
2,0,5.4|
2,1,4.5|
2,2,7.1|
];
constraint_x3_y3=[
0,0,6.9|
0,1,1.2|
0,2,9.6|
1,0,4.8|
1,1,0.31|
1,2,4.6|
2,0,8.6|
2,1,8.3|
2,2,5|
];
initial_distribution_y1=[0.25,0.59,0.16];
initial_distribution_y2=[0.36,0.39,0.25];
initial_distribution_y3=[0.43,0.32,0.25];
transition_y1=[
0.78,0.2,0.022|
0.31,0.37,0.32|
0.5,0.33,0.17|
];
transition_y2=[
0.11,0.55,0.34|
0.3,0.34,0.36|
0.23,0.028,0.74|
];
transition_y3=[
0.31,0.28,0.41|
0.37,0.37,0.26|
0.44,0.29,0.27|
];
